
Gurobi 11.0.2 (win64) logging started Mon Jan 20 22:16:13 2025

Set parameter LogFile to value "log_MTTP4_targetS2_E1_Gurobi.log"
Set parameter Method to value 0

Gurobi 11.0.2 (win64) logging started Mon Jan 20 22:17:08 2025

Set parameter LogFile to value "log_MTTP4_targetS2_E1_Gurobi.log"
Gurobi Optimizer version 11.0.2 build v11.0.2rc0 (win64 - Windows 11.0 (22621.2))

CPU model: 12th Gen Intel(R) Core(TM) i7-12700, instruction set [SSE2|AVX|AVX2]
Thread count: 12 physical cores, 20 logical processors, using up to 20 threads

Optimize a model with 12551133 rows, 12713 columns and 25109595 nonzeros
Model fingerprint: 0xb96362af
Variable types: 0 continuous, 12713 integer (12713 binary)
Coefficient statistics:
  Matrix range     [1e+00, 1e+00]
  Objective range  [1e+00, 1e+00]
  Bounds range     [0e+00, 0e+00]
  RHS range        [1e+00, 2e+00]
Found heuristic solution: objective -0.0000000
Presolve removed 12482402 rows and 0 columns
Presolve time: 3.05s
Presolved: 68731 rows, 12713 columns, 144791 nonzeros
Variable types: 0 continuous, 12713 integer (12713 binary)
Found heuristic solution: objective 1110.0000000

Root simplex log...

Iteration    Objective       Primal Inf.    Dual Inf.      Time
       0    3.0000000e+00   0.000000e+00   2.677000e+03      5s
   19731    1.3667935e+03   0.000000e+00   0.000000e+00      8s

Root relaxation: objective 1.366793e+03, 19731 iterations, 2.55 seconds (2.98 work units)
Total elapsed time = 7.54s (DegenMoves)

    Nodes    |    Current Node    |     Objective Bounds      |     Work
 Expl Unexpl |  Obj  Depth IntInf | Incumbent    BestBd   Gap | It/Node Time

     0     0 1366.79345    0 2691 1110.00000 1366.79345  23.1%     -    9s
H    0     0                    1329.0000000 1366.79345  2.84%     -    9s
H    0     0                    1340.0000000 1366.79345  2.00%     -    9s
H    0     0                    1343.0000000 1366.79345  1.77%     -   10s
     0     0 1361.80928    0 2465 1343.00000 1361.80928  1.40%     -   11s
H    0     0                    1349.0000000 1361.80928  0.95%     -   11s
     0     0 1361.48797    0 2488 1349.00000 1361.48797  0.93%     -   11s
     0     0 1361.48797    0 2476 1349.00000 1361.48797  0.93%     -   11s
     0     0 1360.82190    0 1881 1349.00000 1360.82190  0.88%     -   12s
H    0     0                    1354.0000000 1360.82190  0.50%     -   12s
     0     0 1360.82190    0 2027 1354.00000 1360.82190  0.50%     -   12s
     0     0 1360.82190    0 1979 1354.00000 1360.82190  0.50%     -   13s
     0     0 1360.82190    0 2112 1354.00000 1360.82190  0.50%     -   13s
     0     0 1360.82190    0 2113 1354.00000 1360.82190  0.50%     -   13s
     0     0 1360.82190    0 2103 1354.00000 1360.82190  0.50%     -   14s
     0     0 1360.82190    0 2176 1354.00000 1360.82190  0.50%     -   14s
     0     0 1360.77185    0 2227 1354.00000 1360.77185  0.50%     -   15s
H    0     0                    1356.0000000 1360.77185  0.35%     -   15s
     0     0 1360.77185    0 2124 1356.00000 1360.77185  0.35%     -   15s
H    0     0                    1358.0000000 1360.70931  0.20%     -   15s
     0     0 1360.70931    0 2164 1358.00000 1360.70931  0.20%     -   15s
     0     0 1360.70881    0 2176 1358.00000 1360.70881  0.20%     -   15s
     0     0 1360.56728    0 2171 1358.00000 1360.56728  0.19%     -   16s
     0     0 1360.56728    0 2161 1358.00000 1360.56728  0.19%     -   16s
     0     0 1360.56728    0 2340 1358.00000 1360.56728  0.19%     -   16s
     0     0 1360.56728    0 2340 1358.00000 1360.56728  0.19%     -   16s
     0     0 1360.56728    0 1550 1358.00000 1360.56728  0.19%     -   17s
     0     0 1360.56728    0 1593 1358.00000 1360.56728  0.19%     -   17s
     0     0 1360.56728    0 1565 1358.00000 1360.56728  0.19%     -   17s
     0     0 1360.56728    0 1524 1358.00000 1360.56728  0.19%     -   18s
     0     2 1360.56728    0 1524 1358.00000 1360.56728  0.19%     -   19s
    27    37 1360.44349    5 1958 1358.00000 1360.44444  0.18%   555   20s
H   78    77                    1359.0000000 1360.44444  0.11%   435   21s

Cutting planes:
  Gomory: 11
  Clique: 53
  Zero half: 124

Explored 278 nodes (120410 simplex iterations) in 23.84 seconds (18.29 work units)
Thread count was 20 (of 20 available processors)

Solution count 10: 1359 1358 1356 ... 8

Optimal solution found (tolerance 1.00e-04)
Best objective 1.359000000000e+03, best bound 1.359000000000e+03, gap 0.0000%

User-callback calls 4180, time in user-callback 0.00 sec

Gurobi 11.0.2 (win64) logging started Tue Jan 21 10:08:18 2025

Set parameter LogFile to value "log_MTTP4_targetS2_E1_Gurobi.log"
Set parameter Method to value 0

Gurobi 11.0.2 (win64) logging started Tue Jan 21 10:09:13 2025

Set parameter LogFile to value "log_MTTP4_targetS2_E1_Gurobi.log"
Gurobi Optimizer version 11.0.2 build v11.0.2rc0 (win64 - Windows 11.0 (22621.2))

CPU model: 12th Gen Intel(R) Core(TM) i7-12700, instruction set [SSE2|AVX|AVX2]
Thread count: 12 physical cores, 20 logical processors, using up to 20 threads

Optimize a model with 12551133 rows, 12713 columns and 25109595 nonzeros
Model fingerprint: 0xb96362af
Variable types: 0 continuous, 12713 integer (12713 binary)
Coefficient statistics:
  Matrix range     [1e+00, 1e+00]
  Objective range  [1e+00, 1e+00]
  Bounds range     [0e+00, 0e+00]
  RHS range        [1e+00, 2e+00]
Found heuristic solution: objective -0.0000000
Presolve removed 12482402 rows and 0 columns
Presolve time: 2.72s
Presolved: 68731 rows, 12713 columns, 144791 nonzeros
Variable types: 0 continuous, 12713 integer (12713 binary)
Found heuristic solution: objective 1110.0000000

Root simplex log...

Iteration    Objective       Primal Inf.    Dual Inf.      Time
   12510    1.3416626e+03   0.000000e+00   8.090043e+03      5s
   19731    1.3667935e+03   0.000000e+00   0.000000e+00      7s

Root relaxation: objective 1.366793e+03, 19731 iterations, 2.45 seconds (2.98 work units)
Total elapsed time = 7.06s (DegenMoves)

    Nodes    |    Current Node    |     Objective Bounds      |     Work
 Expl Unexpl |  Obj  Depth IntInf | Incumbent    BestBd   Gap | It/Node Time

     0     0 1366.79345    0 2691 1110.00000 1366.79345  23.1%     -    8s
H    0     0                    1329.0000000 1366.79345  2.84%     -    8s
H    0     0                    1340.0000000 1366.79345  2.00%     -    8s
H    0     0                    1343.0000000 1366.79345  1.77%     -   10s
     0     0 1361.80928    0 2465 1343.00000 1361.80928  1.40%     -   10s
H    0     0                    1349.0000000 1361.80928  0.95%     -   11s
     0     0 1361.48797    0 2488 1349.00000 1361.48797  0.93%     -   11s
     0     0 1361.48797    0 2476 1349.00000 1361.48797  0.93%     -   11s
     0     0 1360.82190    0 1881 1349.00000 1360.82190  0.88%     -   12s
H    0     0                    1354.0000000 1360.82190  0.50%     -   12s
     0     0 1360.82190    0 2027 1354.00000 1360.82190  0.50%     -   12s
     0     0 1360.82190    0 1979 1354.00000 1360.82190  0.50%     -   13s
     0     0 1360.82190    0 2112 1354.00000 1360.82190  0.50%     -   13s
     0     0 1360.82190    0 2113 1354.00000 1360.82190  0.50%     -   13s
     0     0 1360.82190    0 2103 1354.00000 1360.82190  0.50%     -   14s
     0     0 1360.82190    0 2176 1354.00000 1360.82190  0.50%     -   14s
     0     0 1360.77185    0 2227 1354.00000 1360.77185  0.50%     -   15s
H    0     0                    1356.0000000 1360.77185  0.35%     -   15s
     0     0 1360.77185    0 2124 1356.00000 1360.77185  0.35%     -   15s
H    0     0                    1358.0000000 1360.70931  0.20%     -   15s
     0     0 1360.70931    0 2164 1358.00000 1360.70931  0.20%     -   15s
     0     0 1360.70881    0 2176 1358.00000 1360.70881  0.20%     -   15s
     0     0 1360.56728    0 2171 1358.00000 1360.56728  0.19%     -   16s
     0     0 1360.56728    0 2161 1358.00000 1360.56728  0.19%     -   16s
     0     0 1360.56728    0 2340 1358.00000 1360.56728  0.19%     -   16s
     0     0 1360.56728    0 2340 1358.00000 1360.56728  0.19%     -   16s
     0     0 1360.56728    0 1550 1358.00000 1360.56728  0.19%     -   17s
     0     0 1360.56728    0 1593 1358.00000 1360.56728  0.19%     -   17s
     0     0 1360.56728    0 1565 1358.00000 1360.56728  0.19%     -   18s
     0     0 1360.56728    0 1524 1358.00000 1360.56728  0.19%     -   18s
     0     2 1360.56728    0 1524 1358.00000 1360.56728  0.19%     -   19s
    15    25 1360.44444    4 1618 1358.00000 1360.44444  0.18%   707   20s
H   78    77                    1359.0000000 1360.44444  0.11%   435   22s

Cutting planes:
  Gomory: 11
  Clique: 53
  Zero half: 124

Explored 278 nodes (120410 simplex iterations) in 24.38 seconds (18.29 work units)
Thread count was 20 (of 20 available processors)

Solution count 10: 1359 1358 1356 ... 8

Optimal solution found (tolerance 1.00e-04)
Best objective 1.359000000000e+03, best bound 1.359000000000e+03, gap 0.0000%

User-callback calls 4344, time in user-callback 0.00 sec
